(set-logic QF_NRA)
(set-info :source |
From termination analysis of term rewriting.

Submitted by Harald Roman Zankl <Harald.Zankl@uibk.ac.at>

|)
(set-info :smt-lib-version 2.0)
(set-info :category "industrial")
(set-info :status unknown)
(declare-fun x6 () Real)
(declare-fun x3 () Real)
(declare-fun x10 () Real)
(declare-fun x0 () Real)
(declare-fun x7 () Real)
(declare-fun x4 () Real)
(declare-fun x1 () Real)
(declare-fun x8 () Real)
(declare-fun x5 () Real)
(declare-fun x2 () Real)
(declare-fun x9 () Real)
(assert (>= x6 0))
(assert (>= x3 0))
(assert (>= x10 0))
(assert (>= x0 0))
(assert (>= x7 0))
(assert (>= x4 0))
(assert (>= x1 0))
(assert (>= x8 0))
(assert (>= x5 0))
(assert (>= x2 0))
(assert (>= x9 0))
(assert (let ((?v_0 (+ x0 (* x1 x2))) (?v_2 (* x1 x3)) (?v_1 (+ x0 (* x1 x6)))) (let ((?v_5 (and (and (and (> ?v_0 x4) (>= ?v_0 x4)) (>= ?v_2 x5)) (and (and (> ?v_0 ?v_1) (>= ?v_0 ?v_1)) (>= ?v_2 (* x1 x7))))) (?v_4 (+ x8 (* x9 x6))) (?v_3 (+ x8 (* x9 x2)))) (and (and (and (and ?v_5 (and (and (> ?v_3 ?v_4) (>= ?v_3 ?v_4)) (>= (* x9 x3) (* x9 x7)))) (and (> ?v_4 x10) (>= ?v_4 x10))) (and (and (> x6 x2) (>= x6 x2)) (>= x7 x3))) ?v_5))))
(check-sat)
(exit)
